************************************************************************
file with basedata            : j60_44.bas
initial value random generator: 564253098
************************************************************************
projects                      :  1
jobs (incl. supersource/sink ):  62
horizon                       :  307
RESOURCES
  - renewable                 :  4   R
  - nonrenewable              :  0   N
  - doubly constrained        :  0   D
************************************************************************
PROJECT INFORMATION:
pronr.  #jobs rel.date duedate tardcost  MPM-Time
    1     60      0       72       54       72
************************************************************************
PRECEDENCE RELATIONS:
jobnr.    #modes  #successors   successors
   1        1          3           2   3   4
   2        1          1          16
   3        1          3           5   8  34
   4        1          3           6   7  57
   5        1          1          39
   6        1          3          10  23  27
   7        1          2          11  37
   8        1          3           9  14  15
   9        1          2          11  37
  10        1          2          17  38
  11        1          3          12  22  25
  12        1          3          13  21  41
  13        1          2          29  30
  14        1          2          32  51
  15        1          3          24  31  42
  16        1          3          19  20  45
  17        1          3          18  37  40
  18        1          1          42
  19        1          2          31  55
  20        1          3          22  41  48
  21        1          2          26  32
  22        1          3          24  28  32
  23        1          2          35  61
  24        1          2          27  36
  25        1          1          56
  26        1          2          42  44
  27        1          1          44
  28        1          3          31  36  46
  29        1          3          39  46  50
  30        1          3          33  39  48
  31        1          1          47
  32        1          1          47
  33        1          1          50
  34        1          2          40  53
  35        1          1          58
  36        1          1          56
  37        1          1          55
  38        1          1          46
  39        1          3          40  52  53
  40        1          1          60
  41        1          1          54
  42        1          3          43  45  47
  43        1          1          49
  44        1          2          51  61
  45        1          2          48  52
  46        1          3          49  53  61
  47        1          2          50  59
  48        1          1          59
  49        1          1          51
  50        1          1          54
  51        1          2          52  56
  52        1          1          54
  53        1          1          55
  54        1          1          58
  55        1          1          59
  56        1          1          58
  57        1          1          60
  58        1          1          60
  59        1          1          62
  60        1          1          62
  61        1          1          62
  62        1          0        
************************************************************************
REQUESTS/DURATIONS:
jobnr. mode duration  R 1  R 2  R 3  R 4
------------------------------------------------------------------------
  1      1     0       0    0    0    0
  2      1     7       0    5    9    5
  3      1     3       6    9    4    4
  4      1     1       3    8    8    1
  5      1     5       4   10    0    3
  6      1     2       3    1    0    8
  7      1     5       6   10    7    5
  8      1     6       5    0    0    9
  9      1     6       6    0    7    0
 10      1     7       0    4    0    0
 11      1     2       0    7    4    8
 12      1     4      10    1    7    3
 13      1     3       5    3    7    0
 14      1     2       3   10    8    0
 15      1    10       3    2   10    3
 16      1    10       1    4    1   10
 17      1     1       5   10    5    0
 18      1     8       5    0    0    6
 19      1    10       1    9    9    0
 20      1     8       0    7    7    3
 21      1     7       0   10    5    0
 22      1     2       2    3    6    0
 23      1     7       1    0    8   10
 24      1     5       8    7    6    1
 25      1     4       8    2    8    2
 26      1     7       9    7   10    8
 27      1     7       2    1    0    8
 28      1     5       6    5    0    0
 29      1     4       6    1    7    1
 30      1     5       0   10    8    2
 31      1     9       0    6    0    7
 32      1     1       0   10    0    8
 33      1     2       0    1    5    4
 34      1     1       7    0    0    7
 35      1     7       2    0    5    7
 36      1     6       0    3    3    7
 37      1    10       2   10    4    0
 38      1     6       3   10    6    3
 39      1     6      10    7    0    2
 40      1     6       6    5    0    0
 41      1     9       2    7    6    3
 42      1     5       3    7    8    1
 43      1     4       2    0    1    0
 44      1     2       2    5    2    4
 45      1     7      10    9    9    7
 46      1     2       0    6    9    3
 47      1     4       0    5    0    9
 48      1     8       0   10    8    0
 49      1     8       0    1    8    1
 50      1     5       0    2    7    1
 51      1     1       6    1    0    8
 52      1     4       0    7    0    0
 53      1     5       3    3    7    8
 54      1     5       0    0    6    9
 55      1     4       2    3    5    0
 56      1    10       9    9    5    7
 57      1     4       4    1    6    0
 58      1     6       1    1    0    7
 59      1     1       4    4    2    5
 60      1     3       6    8    6    0
 61      1     3       0    1   10    7
 62      1     0       0    0    0    0
************************************************************************
RESOURCEAVAILABILITIES:
  R 1  R 2  R 3  R 4
   35   47   45   39
************************************************************************
